
Gurobi 6.5.2 (win64) logging started 07/22/16 22:01:23


Gurobi 6.5.2 (win64) logging started 07/22/16 22:01:23

Optimize a model with 3701 rows, 754 columns and 9320 nonzeros
Coefficient statistics:
  Matrix range    [6e-08, 1e+03]
  Objective range [1e+00, 1e+00]
  Bounds range    [1e+00, 1e+00]
  RHS range       [6e-06, 2e+03]
Presolve removed 3441 rows and 487 columns
Presolve time: 0.00s
Presolved: 260 rows, 267 columns, 1111 nonzeros
Variable types: 267 continuous, 0 integer (0 binary)

Root relaxation: objective 1.848959e+02, 294 iterations, 0.02 seconds

    Nodes    |    Current Node    |     Objective Bounds      |     Work
 Expl Unexpl |  Obj  Depth IntInf | Incumbent    BestBd   Gap | It/Node Time

*    0     0               0     184.8959346  184.89593  0.00%     -    0s

Explored 0 nodes (294 simplex iterations) in 0.02 seconds
Thread count was 8 (of 8 available processors)

Optimal solution found (tolerance 1.00e-04)
Best objective 1.848959346193e+02, best bound 1.848959346193e+02, gap 0.0%

Wrote requested result file 'H1\instance26\\Results26EC_Sol5.lp'

